c File: flat50_3_0.col
c
c SOURCE: Joseph Culberson (joe@cs.ualberta.ca)
c DESCRIPTION: Quasi-random coloring problem
c              generated with flatness = 0
c                             probability = 0.139
c                             known coloring = 3
c                             random seed = 1386
c              Creation Date:  Tue Jun  9 12:08:06 1998
c Maximum degree = 8 Minimum degree = 1
c p edge 50 115
c cnf created by edge2cnf
p cnf 150 545
-1 -2 0
-1 -3 0
-2 -3 0
1 2 3 0
-4 -5 0
-4 -6 0
-5 -6 0
4 5 6 0
-7 -8 0
-7 -9 0
-8 -9 0
7 8 9 0
-10 -11 0
-10 -12 0
-11 -12 0
10 11 12 0
-13 -14 0
-13 -15 0
-14 -15 0
13 14 15 0
-16 -17 0
-16 -18 0
-17 -18 0
16 17 18 0
-19 -20 0
-19 -21 0
-20 -21 0
19 20 21 0
-22 -23 0
-22 -24 0
-23 -24 0
22 23 24 0
-25 -26 0
-25 -27 0
-26 -27 0
25 26 27 0
-28 -29 0
-28 -30 0
-29 -30 0
28 29 30 0
-31 -32 0
-31 -33 0
-32 -33 0
31 32 33 0
-34 -35 0
-34 -36 0
-35 -36 0
34 35 36 0
-37 -38 0
-37 -39 0
-38 -39 0
37 38 39 0
-40 -41 0
-40 -42 0
-41 -42 0
40 41 42 0
-43 -44 0
-43 -45 0
-44 -45 0
43 44 45 0
-46 -47 0
-46 -48 0
-47 -48 0
46 47 48 0
-49 -50 0
-49 -51 0
-50 -51 0
49 50 51 0
-52 -53 0
-52 -54 0
-53 -54 0
52 53 54 0
-55 -56 0
-55 -57 0
-56 -57 0
55 56 57 0
-58 -59 0
-58 -60 0
-59 -60 0
58 59 60 0
-61 -62 0
-61 -63 0
-62 -63 0
61 62 63 0
-64 -65 0
-64 -66 0
-65 -66 0
64 65 66 0
-67 -68 0
-67 -69 0
-68 -69 0
67 68 69 0
-70 -71 0
-70 -72 0
-71 -72 0
70 71 72 0
-73 -74 0
-73 -75 0
-74 -75 0
73 74 75 0
-76 -77 0
-76 -78 0
-77 -78 0
76 77 78 0
-79 -80 0
-79 -81 0
-80 -81 0
79 80 81 0
-82 -83 0
-82 -84 0
-83 -84 0
82 83 84 0
-85 -86 0
-85 -87 0
-86 -87 0
85 86 87 0
-88 -89 0
-88 -90 0
-89 -90 0
88 89 90 0
-91 -92 0
-91 -93 0
-92 -93 0
91 92 93 0
-94 -95 0
-94 -96 0
-95 -96 0
94 95 96 0
-97 -98 0
-97 -99 0
-98 -99 0
97 98 99 0
-100 -101 0
-100 -102 0
-101 -102 0
100 101 102 0
-103 -104 0
-103 -105 0
-104 -105 0
103 104 105 0
-106 -107 0
-106 -108 0
-107 -108 0
106 107 108 0
-109 -110 0
-109 -111 0
-110 -111 0
109 110 111 0
-112 -113 0
-112 -114 0
-113 -114 0
112 113 114 0
-115 -116 0
-115 -117 0
-116 -117 0
115 116 117 0
-118 -119 0
-118 -120 0
-119 -120 0
118 119 120 0
-121 -122 0
-121 -123 0
-122 -123 0
121 122 123 0
-124 -125 0
-124 -126 0
-125 -126 0
124 125 126 0
-127 -128 0
-127 -129 0
-128 -129 0
127 128 129 0
-130 -131 0
-130 -132 0
-131 -132 0
130 131 132 0
-133 -134 0
-133 -135 0
-134 -135 0
133 134 135 0
-136 -137 0
-136 -138 0
-137 -138 0
136 137 138 0
-139 -140 0
-139 -141 0
-140 -141 0
139 140 141 0
-142 -143 0
-142 -144 0
-143 -144 0
142 143 144 0
-145 -146 0
-145 -147 0
-146 -147 0
145 146 147 0
-148 -149 0
-148 -150 0
-149 -150 0
148 149 150 0
-52 -1 0
-53 -2 0
-54 -3 0
-106 -1 0
-107 -2 0
-108 -3 0
-148 -1 0
-149 -2 0
-150 -3 0
-88 -4 0
-89 -5 0
-90 -6 0
-91 -4 0
-92 -5 0
-93 -6 0
-121 -4 0
-122 -5 0
-123 -6 0
-82 -7 0
-83 -8 0
-84 -9 0
-115 -7 0
-116 -8 0
-117 -9 0
-130 -7 0
-131 -8 0
-132 -9 0
-52 -10 0
-53 -11 0
-54 -12 0
-55 -10 0
-56 -11 0
-57 -12 0
-94 -10 0
-95 -11 0
-96 -12 0
-97 -10 0
-98 -11 0
-99 -12 0
-130 -10 0
-131 -11 0
-132 -12 0
-64 -13 0
-65 -14 0
-66 -15 0
-76 -13 0
-77 -14 0
-78 -15 0
-79 -13 0
-80 -14 0
-81 -15 0
-82 -13 0
-83 -14 0
-84 -15 0
-142 -13 0
-143 -14 0
-144 -15 0
-97 -16 0
-98 -17 0
-99 -18 0
-103 -16 0
-104 -17 0
-105 -18 0
-115 -16 0
-116 -17 0
-117 -18 0
-136 -16 0
-137 -17 0
-138 -18 0
-145 -16 0
-146 -17 0
-147 -18 0
-85 -19 0
-86 -20 0
-87 -21 0
-100 -22 0
-101 -23 0
-102 -24 0
-106 -22 0
-107 -23 0
-108 -24 0
-115 -22 0
-116 -23 0
-117 -24 0
-58 -25 0
-59 -26 0
-60 -27 0
-61 -25 0
-62 -26 0
-63 -27 0
-73 -25 0
-74 -26 0
-75 -27 0
-88 -25 0
-89 -26 0
-90 -27 0
-136 -25 0
-137 -26 0
-138 -27 0
-139 -25 0
-140 -26 0
-141 -27 0
-55 -28 0
-56 -29 0
-57 -30 0
-73 -28 0
-74 -29 0
-75 -30 0
-76 -28 0
-77 -29 0
-78 -30 0
-118 -28 0
-119 -29 0
-120 -30 0
-52 -31 0
-53 -32 0
-54 -33 0
-58 -31 0
-59 -32 0
-60 -33 0
-94 -31 0
-95 -32 0
-96 -33 0
-109 -31 0
-110 -32 0
-111 -33 0
-121 -31 0
-122 -32 0
-123 -33 0
-136 -31 0
-137 -32 0
-138 -33 0
-91 -34 0
-92 -35 0
-93 -36 0
-133 -34 0
-134 -35 0
-135 -36 0
-73 -37 0
-74 -38 0
-75 -39 0
-76 -37 0
-77 -38 0
-78 -39 0
-85 -37 0
-86 -38 0
-87 -39 0
-100 -37 0
-101 -38 0
-102 -39 0
-112 -37 0
-113 -38 0
-114 -39 0
-121 -37 0
-122 -38 0
-123 -39 0
-127 -37 0
-128 -38 0
-129 -39 0
-52 -40 0
-53 -41 0
-54 -42 0
-82 -40 0
-83 -41 0
-84 -42 0
-112 -40 0
-113 -41 0
-114 -42 0
-139 -40 0
-140 -41 0
-141 -42 0
-145 -40 0
-146 -41 0
-147 -42 0
-58 -43 0
-59 -44 0
-60 -45 0
-124 -43 0
-125 -44 0
-126 -45 0
-127 -43 0
-128 -44 0
-129 -45 0
-136 -43 0
-137 -44 0
-138 -45 0
-145 -43 0
-146 -44 0
-147 -45 0
-58 -46 0
-59 -47 0
-60 -48 0
-76 -46 0
-77 -47 0
-78 -48 0
-79 -46 0
-80 -47 0
-81 -48 0
-97 -46 0
-98 -47 0
-99 -48 0
-106 -46 0
-107 -47 0
-108 -48 0
-115 -46 0
-116 -47 0
-117 -48 0
-148 -46 0
-149 -47 0
-150 -48 0
-67 -49 0
-68 -50 0
-69 -51 0
-82 -49 0
-83 -50 0
-84 -51 0
-85 -49 0
-86 -50 0
-87 -51 0
-106 -49 0
-107 -50 0
-108 -51 0
-109 -49 0
-110 -50 0
-111 -51 0
-121 -49 0
-122 -50 0
-123 -51 0
-130 -49 0
-131 -50 0
-132 -51 0
-103 -52 0
-104 -53 0
-105 -54 0
-112 -52 0
-113 -53 0
-114 -54 0
-106 -55 0
-107 -56 0
-108 -57 0
-124 -55 0
-125 -56 0
-126 -57 0
-136 -55 0
-137 -56 0
-138 -57 0
-121 -58 0
-122 -59 0
-123 -60 0
-106 -61 0
-107 -62 0
-108 -63 0
-121 -61 0
-122 -62 0
-123 -63 0
-124 -61 0
-125 -62 0
-126 -63 0
-145 -61 0
-146 -62 0
-147 -63 0
-139 -64 0
-140 -65 0
-141 -66 0
-103 -67 0
-104 -68 0
-105 -69 0
-121 -67 0
-122 -68 0
-123 -69 0
-136 -67 0
-137 -68 0
-138 -69 0
-148 -67 0
-149 -68 0
-150 -69 0
-139 -70 0
-140 -71 0
-141 -72 0
-142 -70 0
-143 -71 0
-144 -72 0
-130 -73 0
-131 -74 0
-132 -75 0
-136 -73 0
-137 -74 0
-138 -75 0
-139 -73 0
-140 -74 0
-141 -75 0
-148 -73 0
-149 -74 0
-150 -75 0
-118 -76 0
-119 -77 0
-120 -78 0
-118 -79 0
-119 -80 0
-120 -81 0
-145 -79 0
-146 -80 0
-147 -81 0
-115 -82 0
-116 -83 0
-117 -84 0
-127 -82 0
-128 -83 0
-129 -84 0
-106 -85 0
-107 -86 0
-108 -87 0
-139 -85 0
-140 -86 0
-141 -87 0
-124 -88 0
-125 -89 0
-126 -90 0
-109 -91 0
-110 -92 0
-111 -93 0
-118 -91 0
-119 -92 0
-120 -93 0
-133 -91 0
-134 -92 0
-135 -93 0
-136 -91 0
-137 -92 0
-138 -93 0
-106 -94 0
-107 -95 0
-108 -96 0
-109 -94 0
-110 -95 0
-111 -96 0
-130 -94 0
-131 -95 0
-132 -96 0
-118 -100 0
-119 -101 0
-120 -102 0
-121 -100 0
-122 -101 0
-123 -102 0
